NAME: data/tsp_5.tsp
TYPE: TSP
COMMENT:by Elliott vanwormhoudt 
DIMENSION: 5
EDGE_WEIGH_TYPE: "EXPLICIT"
EDGE_WEIGHT_FORMAT: "FULL_MATRIX"


EDGE_WEIGHT_SECTION
    0    78    41    61    20 
   78     0    53    57    36 
   41    53     0    32    41 
   61    57    32     0    96 
   20    36    41    96     0 
